10
10
43	12	58	35	80	93	69	53	83	55	
58	56	15	91	73	1	84	74	85	2	
65	36	31	33	63	36	7	1	48	11	
74	64	83	3	21	37	75	23	45	89	
17	56	52	3	97	32	84	21	66	64	
65	73	84	64	97	73	9	59	60	11	
18	36	26	1	16	7	15	55	40	36	
11	22	60	57	78	93	22	20	11	79	
87	87	97	40	27	66	13	48	96	24	
52	94	70	10	5	76	58	58	55	77	